jobs  (incl. supersource/sink ):	52
RESOURCES
- renewable                 : 2 R
- nonrenewable              : 2 N
- doubly constrained        : 0 D
************************************************************************
PRECEDENCE RELATIONS:
jobnr.    #modes  #successors   successors
1	1	14		2 3 4 5 6 7 8 10 11 15 17 18 27 28 
2	9	14		51 48 34 33 32 31 30 29 26 24 23 21 20 19 
3	9	9		31 26 24 23 21 19 16 12 9 
4	9	8		29 24 22 21 20 14 13 12 
5	9	6		49 37 32 25 20 16 
6	9	8		48 46 45 43 35 29 26 23 
7	9	6		43 35 31 29 23 21 
8	9	6		42 40 33 31 24 21 
9	9	11		51 47 46 44 43 42 41 39 36 35 29 
10	9	8		49 48 47 45 43 39 29 25 
11	9	8		50 48 46 45 43 37 29 23 
12	9	8		51 49 48 47 45 43 41 30 
13	9	7		50 49 47 43 40 38 25 
14	9	6		48 46 43 41 40 23 
15	9	9		47 45 44 43 42 41 40 39 38 
16	9	7		48 47 45 43 42 39 29 
17	9	8		51 50 46 45 44 43 39 38 
18	9	5		47 43 40 30 24 
19	9	7		50 46 44 42 41 40 39 
20	9	6		47 45 44 40 39 35 
21	9	6		49 46 45 44 39 38 
22	9	4		50 42 39 36 
23	9	4		44 42 39 38 
24	9	3		41 39 38 
25	9	3		46 42 41 
26	9	3		47 41 39 
27	9	3		44 42 40 
28	9	3		44 40 38 
29	9	2		40 38 
30	9	2		39 38 
31	9	2		41 38 
32	9	2		45 39 
33	9	2		43 38 
34	9	2		50 40 
35	9	1		38 
36	9	1		38 
37	9	1		38 
38	9	1		52 
39	9	1		52 
40	9	1		52 
41	9	1		52 
42	9	1		52 
43	9	1		52 
44	9	1		52 
45	9	1		52 
46	9	1		52 
47	9	1		52 
48	9	1		52 
49	9	1		52 
50	9	1		52 
51	9	1		52 
52	1	0		
************************************************************************
REQUESTS/DURATIONS
jobnr.	mode	dur	R1	R2	N1	N2	
------------------------------------------------------------------------
1	1	0	0	0	0	0	
2	1	1	3	1	24	29	
	2	5	3	1	22	28	
	3	8	3	1	19	28	
	4	12	2	1	16	27	
	5	14	2	1	13	26	
	6	17	2	1	11	26	
	7	19	1	1	8	25	
	8	20	1	1	8	24	
	9	26	1	1	5	25	
3	1	7	2	5	2	26	
	2	8	2	4	1	25	
	3	10	2	4	1	24	
	4	15	2	3	1	23	
	5	16	2	3	1	22	
	6	17	1	2	1	22	
	7	18	1	2	1	21	
	8	23	1	1	1	21	
	9	26	1	1	1	20	
4	1	1	3	3	14	16	
	2	4	3	3	13	14	
	3	7	3	3	13	13	
	4	13	3	3	13	12	
	5	23	3	3	13	11	
	6	24	3	3	13	10	
	7	27	3	3	13	9	
	8	28	3	3	13	8	
	9	29	3	3	13	7	
5	1	6	4	4	24	28	
	2	7	4	4	21	28	
	3	9	3	4	20	27	
	4	10	3	4	16	25	
	5	15	3	4	14	25	
	6	19	2	4	12	23	
	7	25	1	4	10	21	
	8	26	1	4	5	20	
	9	29	1	4	4	19	
6	1	3	3	4	23	24	
	2	5	2	3	21	24	
	3	7	2	3	21	23	
	4	15	2	3	18	24	
	5	16	1	3	17	24	
	6	22	1	3	15	24	
	7	26	1	3	11	24	
	8	29	1	3	11	23	
	9	30	1	3	7	24	
7	1	5	4	4	12	27	
	2	7	4	4	11	26	
	3	8	4	4	10	24	
	4	9	4	4	9	24	
	5	10	4	4	9	21	
	6	16	4	4	9	20	
	7	19	4	4	8	19	
	8	24	4	4	7	19	
	9	25	4	4	7	18	
8	1	3	4	3	30	21	
	2	5	3	3	25	17	
	3	11	3	3	25	16	
	4	13	3	3	21	16	
	5	19	2	3	19	14	
	6	20	2	3	18	11	
	7	22	1	3	15	11	
	8	24	1	3	13	8	
	9	30	1	3	13	7	
9	1	2	4	2	28	6	
	2	4	3	2	24	6	
	3	8	3	2	24	5	
	4	10	3	2	19	6	
	5	17	2	2	18	6	
	6	18	2	2	15	6	
	7	19	2	2	12	6	
	8	20	2	2	11	6	
	9	27	2	2	7	6	
10	1	3	4	2	29	27	
	2	4	3	1	25	26	
	3	5	3	1	24	26	
	4	10	3	1	24	25	
	5	13	3	1	21	25	
	6	16	2	1	19	25	
	7	19	2	1	19	24	
	8	22	2	1	16	25	
	9	30	2	1	16	24	
11	1	2	3	5	12	29	
	2	3	3	4	12	27	
	3	4	3	4	12	26	
	4	10	2	4	12	26	
	5	18	2	3	11	25	
	6	19	2	3	11	24	
	7	27	2	3	11	23	
	8	28	1	2	11	23	
	9	30	1	2	11	22	
12	1	1	2	2	7	29	
	2	2	2	2	7	28	
	3	3	2	2	7	27	
	4	6	2	2	6	28	
	5	9	2	2	6	27	
	6	18	2	1	6	28	
	7	21	2	1	5	29	
	8	22	2	1	5	28	
	9	23	2	1	5	27	
13	1	6	4	4	27	28	
	2	8	3	3	25	23	
	3	14	3	3	24	19	
	4	16	3	3	22	17	
	5	17	3	3	20	13	
	6	18	3	2	18	11	
	7	19	3	2	16	7	
	8	20	3	2	14	4	
	9	28	3	2	11	3	
14	1	1	4	4	19	30	
	2	2	4	4	19	28	
	3	11	3	4	16	28	
	4	12	3	4	13	26	
	5	15	2	4	11	26	
	6	17	2	4	10	26	
	7	19	1	4	7	24	
	8	21	1	4	3	24	
	9	24	1	4	2	23	
15	1	4	5	1	18	18	
	2	7	4	1	17	17	
	3	11	3	1	16	16	
	4	16	3	1	15	15	
	5	18	3	1	13	14	
	6	19	2	1	11	14	
	7	25	1	1	11	13	
	8	26	1	1	10	11	
	9	27	1	1	8	11	
16	1	6	5	2	6	28	
	2	8	4	1	5	26	
	3	10	3	1	5	25	
	4	15	3	1	5	24	
	5	20	3	1	4	22	
	6	23	2	1	4	22	
	7	24	2	1	4	19	
	8	28	1	1	3	18	
	9	30	1	1	3	17	
17	1	3	5	2	28	29	
	2	7	4	1	26	27	
	3	14	3	1	24	27	
	4	16	3	1	23	24	
	5	17	3	1	23	22	
	6	19	2	1	20	21	
	7	20	2	1	20	19	
	8	28	1	1	19	19	
	9	30	1	1	17	18	
18	1	3	3	4	22	25	
	2	4	2	4	21	25	
	3	12	2	4	21	23	
	4	15	2	4	21	19	
	5	16	2	4	21	16	
	6	22	2	4	21	14	
	7	28	2	4	21	13	
	8	29	2	4	21	10	
	9	30	2	4	21	9	
19	1	1	4	3	20	7	
	2	2	4	3	20	6	
	3	6	3	3	20	6	
	4	10	3	3	19	5	
	5	20	2	2	19	5	
	6	21	2	2	18	5	
	7	22	2	2	17	5	
	8	25	1	2	17	4	
	9	27	1	2	17	3	
20	1	1	3	5	23	24	
	2	11	3	5	21	24	
	3	12	3	5	21	23	
	4	13	3	5	17	21	
	5	16	3	5	17	20	
	6	25	3	5	15	20	
	7	26	3	5	12	19	
	8	27	3	5	10	18	
	9	29	3	5	9	17	
21	1	3	3	3	24	18	
	2	6	3	3	21	15	
	3	17	3	3	18	13	
	4	23	3	3	15	12	
	5	24	3	3	11	10	
	6	25	3	2	9	9	
	7	26	3	2	7	5	
	8	27	3	2	5	5	
	9	28	3	2	1	2	
22	1	4	4	5	24	11	
	2	6	4	5	23	10	
	3	7	4	5	20	10	
	4	8	4	5	18	9	
	5	19	4	5	18	8	
	6	21	3	5	16	8	
	7	24	3	5	12	8	
	8	26	3	5	12	7	
	9	27	3	5	9	6	
23	1	1	2	2	23	22	
	2	2	1	1	22	19	
	3	3	1	1	21	19	
	4	8	1	1	19	17	
	5	11	1	1	18	15	
	6	16	1	1	17	13	
	7	25	1	1	16	12	
	8	28	1	1	15	8	
	9	30	1	1	15	7	
24	1	1	3	4	17	15	
	2	7	3	4	14	14	
	3	8	3	4	12	13	
	4	13	3	4	11	13	
	5	14	3	3	9	12	
	6	16	3	3	7	11	
	7	24	3	2	5	11	
	8	26	3	2	3	10	
	9	28	3	2	2	10	
25	1	3	4	4	25	27	
	2	6	4	3	24	24	
	3	7	4	3	24	23	
	4	10	4	3	23	21	
	5	17	4	2	23	21	
	6	18	4	2	23	19	
	7	22	4	2	22	18	
	8	24	4	2	22	16	
	9	26	4	2	22	14	
26	1	1	5	2	23	19	
	2	8	5	1	21	18	
	3	10	5	1	18	16	
	4	11	5	1	16	16	
	5	15	5	1	15	13	
	6	21	5	1	11	13	
	7	23	5	1	9	11	
	8	24	5	1	9	10	
	9	30	5	1	7	8	
27	1	6	5	5	10	26	
	2	12	4	4	10	24	
	3	16	3	4	8	24	
	4	17	3	4	7	22	
	5	18	2	4	7	21	
	6	19	2	4	4	20	
	7	22	2	4	3	19	
	8	25	1	4	3	18	
	9	30	1	4	2	18	
28	1	4	3	2	17	12	
	2	9	3	2	17	11	
	3	13	3	2	16	12	
	4	14	3	2	15	12	
	5	15	3	2	13	11	
	6	19	3	2	13	10	
	7	23	3	2	12	10	
	8	24	3	2	11	10	
	9	25	3	2	9	10	
29	1	1	1	4	22	3	
	2	3	1	4	19	2	
	3	5	1	4	18	2	
	4	10	1	4	13	2	
	5	16	1	3	10	2	
	6	24	1	3	9	2	
	7	25	1	3	7	2	
	8	27	1	2	3	2	
	9	28	1	2	1	2	
30	1	3	2	3	11	23	
	2	6	2	3	10	22	
	3	13	2	3	10	21	
	4	17	2	3	9	22	
	5	20	2	2	9	22	
	6	23	1	2	9	22	
	7	24	1	2	9	21	
	8	26	1	2	8	22	
	9	27	1	2	8	21	
31	1	3	4	2	7	24	
	2	4	4	2	7	23	
	3	7	4	2	7	22	
	4	9	4	2	6	23	
	5	11	4	2	6	22	
	6	12	4	2	5	23	
	7	13	4	2	4	23	
	8	17	4	2	4	22	
	9	19	4	2	4	21	
32	1	2	4	3	24	29	
	2	11	4	3	23	26	
	3	13	3	3	23	21	
	4	14	3	3	23	20	
	5	15	3	3	22	16	
	6	17	2	3	22	14	
	7	20	1	3	22	10	
	8	21	1	3	21	8	
	9	23	1	3	21	5	
33	1	8	4	3	28	28	
	2	9	4	2	27	27	
	3	10	4	2	27	26	
	4	11	3	2	26	25	
	5	15	3	2	24	24	
	6	18	3	2	24	23	
	7	19	3	2	22	23	
	8	28	2	2	22	22	
	9	30	2	2	21	21	
34	1	2	3	2	21	8	
	2	5	3	2	21	7	
	3	6	3	2	21	6	
	4	9	3	2	21	5	
	5	10	3	2	20	6	
	6	15	3	2	20	5	
	7	24	3	2	20	4	
	8	26	3	2	19	6	
	9	30	3	2	19	5	
35	1	1	3	5	21	19	
	2	4	3	4	17	18	
	3	7	3	3	17	17	
	4	9	3	3	14	15	
	5	13	3	2	11	15	
	6	16	3	2	9	13	
	7	21	3	1	6	13	
	8	23	3	1	4	11	
	9	26	3	1	1	11	
36	1	5	5	2	18	18	
	2	12	4	2	16	16	
	3	15	4	2	16	15	
	4	16	3	2	16	14	
	5	17	3	2	14	12	
	6	18	3	2	14	11	
	7	19	2	2	14	9	
	8	21	2	2	12	8	
	9	29	2	2	12	7	
37	1	2	4	2	2	30	
	2	3	3	2	2	30	
	3	4	3	2	2	29	
	4	5	3	2	2	28	
	5	11	2	1	2	27	
	6	15	2	1	2	26	
	7	16	2	1	2	25	
	8	17	1	1	2	25	
	9	29	1	1	2	24	
38	1	1	3	3	25	20	
	2	3	3	3	24	19	
	3	5	3	3	20	19	
	4	11	2	3	19	19	
	5	16	2	3	16	19	
	6	22	2	2	14	18	
	7	24	1	2	13	18	
	8	26	1	2	11	18	
	9	28	1	2	9	18	
39	1	1	4	2	14	25	
	2	5	4	2	12	20	
	3	8	3	2	12	17	
	4	12	3	2	11	15	
	5	18	3	2	9	15	
	6	24	2	1	8	10	
	7	28	1	1	7	10	
	8	29	1	1	6	7	
	9	30	1	1	4	5	
40	1	6	3	4	19	20	
	2	10	2	3	18	18	
	3	11	2	3	18	17	
	4	14	2	3	18	16	
	5	15	1	3	18	11	
	6	16	1	2	17	9	
	7	17	1	2	17	8	
	8	18	1	2	17	5	
	9	19	1	2	17	2	
41	1	2	4	3	24	24	
	2	3	4	3	21	24	
	3	6	4	3	21	23	
	4	15	4	3	19	23	
	5	18	4	2	16	23	
	6	22	4	2	15	22	
	7	23	4	2	14	21	
	8	24	4	2	13	21	
	9	30	4	2	11	21	
42	1	5	2	4	24	8	
	2	8	2	4	21	7	
	3	15	2	4	17	7	
	4	18	2	4	16	6	
	5	21	2	3	13	5	
	6	23	2	3	13	4	
	7	24	2	3	10	5	
	8	28	2	3	7	4	
	9	30	2	3	6	4	
43	1	3	5	2	17	18	
	2	4	4	2	17	16	
	3	5	4	2	16	15	
	4	6	3	2	16	14	
	5	11	3	2	15	12	
	6	13	2	2	14	11	
	7	16	1	2	14	10	
	8	21	1	2	12	9	
	9	23	1	2	12	8	
44	1	2	5	3	26	25	
	2	9	5	2	24	24	
	3	17	5	2	21	20	
	4	18	5	2	20	19	
	5	19	5	2	18	18	
	6	20	5	2	14	15	
	7	22	5	2	12	12	
	8	23	5	2	8	12	
	9	24	5	2	6	8	
45	1	1	5	4	17	3	
	2	2	4	3	17	2	
	3	3	4	3	16	2	
	4	8	4	3	16	1	
	5	12	4	3	15	2	
	6	13	4	2	15	2	
	7	18	4	2	14	2	
	8	23	4	2	13	2	
	9	30	4	2	13	1	
46	1	3	2	2	26	24	
	2	6	2	2	22	21	
	3	7	2	2	20	20	
	4	8	2	2	18	18	
	5	9	2	2	16	17	
	6	11	2	2	12	16	
	7	13	2	2	12	14	
	8	16	2	2	9	12	
	9	20	2	2	6	10	
47	1	4	5	2	27	20	
	2	5	5	1	26	20	
	3	6	5	1	26	19	
	4	7	5	1	26	18	
	5	8	5	1	26	17	
	6	18	5	1	25	19	
	7	19	5	1	25	18	
	8	22	5	1	25	17	
	9	30	5	1	25	16	
48	1	1	3	3	27	18	
	2	3	3	3	25	18	
	3	4	3	3	25	16	
	4	11	3	3	24	16	
	5	15	3	2	23	15	
	6	19	3	2	21	13	
	7	20	3	2	21	12	
	8	27	3	2	20	12	
	9	30	3	2	19	11	
49	1	4	4	5	16	21	
	2	12	3	4	13	18	
	3	13	3	4	13	16	
	4	16	3	3	11	16	
	5	17	3	3	10	12	
	6	18	3	3	8	9	
	7	23	3	3	5	7	
	8	24	3	2	5	6	
	9	28	3	2	3	3	
50	1	6	3	3	28	21	
	2	12	3	3	26	18	
	3	13	3	3	25	14	
	4	16	3	3	24	13	
	5	18	3	3	22	11	
	6	19	3	3	19	9	
	7	20	3	3	17	5	
	8	22	3	3	15	3	
	9	26	3	3	14	3	
51	1	5	2	3	14	27	
	2	6	2	2	12	26	
	3	7	2	2	10	22	
	4	8	2	2	8	22	
	5	10	2	1	7	17	
	6	14	2	1	6	15	
	7	19	2	1	5	12	
	8	20	2	1	4	10	
	9	21	2	1	2	8	
52	1	0	0	0	0	0	
************************************************************************

 RESOURCE AVAILABILITIES 
	R 1	R 2	N 1	N 2
	18	17	861	947

************************************************************************
